100
100
99
99
98
96
93
93
92
91
91
91
90
89
89
88
85
85
83
82
82
81
80
79
78
78
74
74
70
69
69
66
65
65
64
64
64
64
63
63
62
62
62
62
61
61
61
61
61
59
59
59
58
58
57
57
56
55
55
54
53
53
52
52
51
49
48
48
47
47
47
47
45
45
45
44
44
43
43
43
42
42
42
42
41
41
41
40
40
39
37
37
36
36
35
34
34
34
32
32
30
30
